SPARKNaCl/why3-cvc5/sparknacl-scalar.adb_24_10_range_check4_1.smt2
;; produced by cvc5.drv ;;
(set-logic ALL)
(set-info :smt-lib-version 2.6)
;;; generated by SMT-LIB2 driver
;;; SMT-LIB2 driver: bit-vectors, common part
;;; SMT-LIB2: integer arithmetic
;; "pow2"
(declare-fun pow2 (Int) Int)

(declare-const two_power_size_minus_one Int)

;; "two_power_size_minus_one_val"
(assert (= two_power_size_minus_one (pow2 (- 8 1))))

;; "min"
(define-fun min ((x Int) (y Int)) Int
  (ite (<= x y) x y))

;; "max"
(define-fun max ((x Int) (y Int)) Int
  (ite (<= x y) y x))

;; "Min_r"
(assert (forall ((x Int) (y Int)) (=> (<= y x) (= (min x y) y))))

;; "Max_l"
(assert (forall ((x Int) (y Int)) (=> (<= y x) (= (max x y) x))))

;; "Min_comm"
(assert (forall ((x Int) (y Int)) (= (min x y) (min y x))))

;; "Max_comm"
(assert (forall ((x Int) (y Int)) (= (max x y) (max y x))))

;; "Min_assoc"
(assert
  (forall ((x Int) (y Int) (z Int)) (= (min (min x y) z) (min x (min y z)))))

;; "Max_assoc"
(assert
  (forall ((x Int) (y Int) (z Int)) (= (max (max x y) z) (max x (max y z)))))

(declare-const two_power_size_minus_one1 Int)

;; "two_power_size_minus_one_val"
(assert (= two_power_size_minus_one1 (pow2 (- 16 1))))

(declare-const two_power_size_minus_one2 Int)

;; "two_power_size_minus_one_val"
(assert (= two_power_size_minus_one2 (pow2 (- 32 1))))

(declare-sort byte 0)

;; "to_rep"
(declare-fun to_rep (byte) (_ BitVec 8))

;; "of_rep"
(declare-fun of_rep ((_ BitVec 8)) byte)

;; "inversion_axiom"
(assert
  (forall ((x byte)) (! (= (of_rep (to_rep x)) x) :pattern ((to_rep x)) )))

;; "range_axiom"
(assert true)

;; "coerce_axiom"
(assert
  (forall ((x (_ BitVec 8)))
    (! (= (to_rep (of_rep x)) x) :pattern ((to_rep (of_rep x))) )))

(declare-sort map1 0)

;; "has_bounds"
(declare-fun has_bounds (map1
  Int
  Int) Bool)

;; "get"
(declare-fun get (map1
  Int) byte)

(declare-const n map1)

(declare-const p map1)

(declare-sort gf16_normal_limb 0)

;; "to_rep"
(declare-fun to_rep1 (gf16_normal_limb) (_ BitVec 16))

;; "of_rep"
(declare-fun of_rep1 ((_ BitVec 16)) gf16_normal_limb)

;; "inversion_axiom"
(assert
  (forall ((x gf16_normal_limb))
    (! (= (of_rep1 (to_rep1 x)) x) :pattern ((to_rep1 x)) )))

;; "range_axiom"
(assert true)

;; "coerce_axiom"
(assert
  (forall ((x (_ BitVec 16)))
    (! (= (to_rep1 (of_rep1 x)) x) :pattern ((to_rep1 (of_rep1 x))) )))

(declare-sort map2 0)

;; "has_bounds"
(declare-fun has_bounds1 (map2
  Int
  Int) Bool)

;; "get"
(declare-fun get1 (map2
  Int) gf16_normal_limb)

(declare-const gf_121665 map2)

;; "unpack_25519"
(declare-fun unpack_25519 (map1) map2)

;; "unpack_25519__function_guard"
(declare-fun unpack_25519__function_guard (map2
  map1) Bool)

(declare-const gf_0 map2)

(declare-const gf_1 map2)

(declare-sort tinteger_32B 0)

;; "tinteger_32B'int"
(declare-fun tinteger_32Bqtint (tinteger_32B) Int)

;; "tinteger_32B'axiom"
(assert
  (forall ((i tinteger_32B))
    (and
      (<= (- 2147483648) (tinteger_32Bqtint i))
      (<= (tinteger_32Bqtint i) 2147483647))))

;; "in_range"
(define-fun in_range ((x Int)) Bool
  (and (<= (- 2147483648) x) (<= x 2147483647)))

;; "to_rep"
(define-fun to_rep2 ((x tinteger_32B)) Int
  (tinteger_32Bqtint x))

;; "of_rep"
(declare-fun of_rep2 (Int) tinteger_32B)

;; "inversion_axiom"
(assert
  (forall ((x tinteger_32B))
    (! (= (of_rep2 (to_rep2 x)) x) :pattern ((to_rep2 x)) )))

;; "range_axiom"
(assert
  (forall ((x tinteger_32B))
    (! (in_range (to_rep2 x)) :pattern ((to_rep2 x)) )))

;; "coerce_axiom"
(assert
  (forall ((x Int))
    (! (=> (in_range x) (= (to_rep2 (of_rep2 x)) x)) :pattern ((to_rep2
                                                                 (of_rep2 x))) )))

;; "ada___sparknacl__scalar__gf_121665__aggregate_def"
(declare-fun ada___sparknacl__scalar__gf_121665__aggregate_def ((_ BitVec 16)
  (_ BitVec 16)
  (_ BitVec 16)) map2)

;; "sparknacl__gf_0__aggregate_def"
(declare-fun sparknacl__gf_0__aggregate_def ((_ BitVec 16)) map2)

;; "sparknacl__gf_1__aggregate_def"
(declare-fun sparknacl__gf_1__aggregate_def ((_ BitVec 16)
  (_ BitVec 16)) map2)

;; "gf_121665__def_axiom"
(assert
  (= gf_121665 (let ((temp___185qtunused (ada___sparknacl__scalar__gf_121665__aggregate_def
                                           #xDB41
                                           #x0001
                                           #x0000)))
                 (ada___sparknacl__scalar__gf_121665__aggregate_def
                   #xDB41
                   #x0001
                   #x0000))))

;; "def_axiom"
(assert
  (forall ((temp___179 (_ BitVec 16)) (temp___180 (_ BitVec 16)) (temp___181 (_ BitVec 16)))
    (let ((temp___182 (ada___sparknacl__scalar__gf_121665__aggregate_def
                        temp___179
                        temp___180
                        temp___181)))
      (and
        (and
          (and
            (= (to_rep1 (get1 temp___182 0)) temp___179)
            (= (to_rep1 (get1 temp___182 1)) temp___180))
          (=>
            (and (and (<= 0 0) (<= 0 15)) (and (<= 0 1) (<= 1 15)))
            (has_bounds1 temp___182 0 15)))
        (forall ((temp___183 Int))
          (! (=>
               (and (<= 0 temp___183) (<= temp___183 15))
               (=>
                 (and (not (= temp___183 0)) (not (= temp___183 1)))
                 (= (to_rep1 (get1 temp___182 temp___183)) temp___181))) :pattern (
          (get1
            temp___182
            temp___183)) ))))))

;; "gf_0__def_axiom"
(assert
  (= gf_0 (let ((temp___192qtunused (sparknacl__gf_0__aggregate_def #x0000)))
            (sparknacl__gf_0__aggregate_def #x0000))))

;; "def_axiom"
(assert
  (forall ((temp___188 (_ BitVec 16)))
    (let ((temp___189 (sparknacl__gf_0__aggregate_def temp___188)))
      (and
        (has_bounds1 temp___189 0 15)
        (forall ((temp___190 Int))
          (! (=>
               (and (<= 0 temp___190) (<= temp___190 15))
               (= (to_rep1 (get1 temp___189 temp___190)) temp___188)) :pattern (
          (get1
            temp___189
            temp___190)) ))))))

;; "gf_1__def_axiom"
(assert
  (= gf_1 (let ((temp___199qtunused (sparknacl__gf_1__aggregate_def
                                      #x0001
                                      #x0000)))
            (sparknacl__gf_1__aggregate_def #x0001 #x0000))))

;; "def_axiom"
(assert
  (forall ((temp___194 (_ BitVec 16)) (temp___195 (_ BitVec 16)))
    (let ((temp___196 (sparknacl__gf_1__aggregate_def temp___194 temp___195)))
      (and
        (and
          (= (to_rep1 (get1 temp___196 0)) temp___194)
          (=> (and (<= 0 0) (<= 0 15)) (has_bounds1 temp___196 0 15)))
        (forall ((temp___197 Int))
          (! (=>
               (and (<= 0 temp___197) (<= temp___197 15))
               (=>
                 (not (= temp___197 0))
                 (= (to_rep1 (get1 temp___196 temp___197)) temp___195))) :pattern (
          (get1
            temp___196
            temp___197)) ))))))

;; Goal "def'vc"
;; File "sparknacl-scalar.ads", line 9, characters 0-0
(assert
  (not
  (=>
    (has_bounds1 gf_121665 0 15)
    (forall ((temp___511 map2))
      (=>
        (and
          (and
            (and
              (and
                (= (to_rep1 (get1 temp___511 0)) #xDB41)
                (= (to_rep1 (get1 temp___511 1)) #x0001))
              (has_bounds1 temp___511 0 15))
            (forall ((temp___184 Int))
              (! (=>
                   (and (<= 0 temp___184) (<= temp___184 15))
                   (=>
                     (and (not (= temp___184 0)) (not (= temp___184 1)))
                     (= (to_rep1 (get1 temp___511 temp___184)) #x0000))) :pattern (
              (get1
                temp___511
                temp___184)) )))
          (= temp___511 (ada___sparknacl__scalar__gf_121665__aggregate_def
                          #xDB41
                          #x0001
                          #x0000)))
        (=>
          (= temp___511 gf_121665)
          (=>
            (has_bounds1 gf_0 0 15)
            (forall ((temp___516 map2))
              (=>
                (and
                  (and
                    (has_bounds1 temp___516 0 15)
                    (forall ((temp___191 Int))
                      (! (=>
                           (and (<= 0 temp___191) (<= temp___191 15))
                           (= (to_rep1 (get1 temp___516 temp___191)) #x0000)) :pattern (
                      (get1
                        temp___516
                        temp___191)) )))
                  (= temp___516 (sparknacl__gf_0__aggregate_def #x0000)))
                (=>
                  (= temp___516 gf_0)
                  (=>
                    (has_bounds1 gf_1 0 15)
                    (forall ((temp___522 map2))
                      (=>
                        (and
                          (and
                            (and
                              (= (to_rep1 (get1 temp___522 0)) #x0001)
                              (has_bounds1 temp___522 0 15))
                            (forall ((temp___198 Int))
                              (! (=>
                                   (and (<= 0 temp___198) (<= temp___198 15))
                                   (=>
                                     (not (= temp___198 0))
                                     (= (to_rep1
                                          (get1 temp___522 temp___198)) #x0000))) :pattern (
                              (get1
                                temp___522
                                temp___198)) )))
                          (= temp___522 (sparknacl__gf_1__aggregate_def
                                          #x0001
                                          #x0000)))
                        (=>
                          (= temp___522 gf_1)
                          (=>
                            (has_bounds n 0 31)
                            (=>
                              (has_bounds p 0 31)
                              (let ((o p))
                                (let ((o1 (unpack_25519 o)))
                                  (=>
                                    (and
                                      (unpack_25519__function_guard o1 o)
                                      (has_bounds1 o1 0 15))
                                    (forall ((x map2))
                                      (=>
                                        (= x o1)
                                        (=>
                                          (has_bounds1 x 0 15)
                                          (forall ((o2 (_ BitVec 8)))
                                            (=>
                                              (= (to_rep (get n 31)) o2)
                                              (=> (<= 1 30) (<= 30 31))))))))))))))))))))))))))

(check-sat)
